Traveling Salesman Problem/TSP_generados/Aleatorio1620391554_15.tsp
NAME: Aleatorio1620391554_15.tsp
COMMENT: Randomly generated scenario
TYPE: TSP
DIMENSION: 15
EDGE_WEIGHT_TYPE: ATT
NODE_COORD_SECTION
1 22.02 24.25
2 33.82 13.97
3 11.04 15.42
4 20.35 42.06
5 39.64 46.09
6 47.63 38.5
7 7.64 0.5
8 20.86 39.86
9 47.32 43.09
10 34.76 21.32
11 22.97 40.11
12 43.36 19.17
13 14.5 47.61
14 11.13 40.83
15 1.42 7.13
