Traveling Salesman Problem/TSP_generados/Aleatorio1620391554_15.opt.tour
NAME: Aleatorio1620391554_15.opt.tour
COMMENT: Optimal solution for Aleatorio1620391554_15 (171.8032679478589)
TYPE: TOUR
DIMENSION: 15
TOUR_SECTION
1 3 15 7 2 10 12 6 9 5 11 8 4 13 14
-1
EOF
